69 11 49 72 8 16 43 74 30 46 48 54 62 13 63 50 3 68 45 2 20 10 5 41 61 24 23 22 1 44 39 36 7 64 35 9 28 55 38 52 70 40 21 59 53 51 37 42 12 76 6 4 57 14 67 47 27 15 33 32 17 18 26 71 73 19 75 34 65 0 58 60 31 29 56 25 66 